0 127850 
1 127660 
2 127550 
3 127490 
4 127390 
5 126790 
6 126690 
7 126490 
8 125690 
9 125490 
10 125090 
11 124990 
12 124690 
13 124490 
14 124390 
15 124390 
16 124290 
17 123690 
18 123490 
19 123490 
20 123090 
21 122990 
22 122860 
23 122660 
24 122460 
25 122220 
26 121820 
27 121720 
28 121520 
29 121020 
30 120920 
31 120880 
32 120780 
33 120580 
34 120580 
35 120320 
36 120060 
37 119960 
38 119760 
39 119630 
40 119560 
41 119560 
42 119460 
43 119260 
44 118760 
45 118000 
46 117800 
47 117600 
48 117400 
49 117200 
50 117000 
51 116400 
52 116100 
53 116000 
54 115900 
55 115800 
56 115500 
57 115480 
58 114560 
59 114360 
60 114160 
61 113760 
62 113530 
63 112730 
64 112530 
65 112330 
66 112230 
67 111830 
68 111430 
69 111030 
70 109970 
71 109570 
72 109270 
73 108870 
74 108570 
75 108470 
76 108070 
77 107570 
78 107470 
79 107370 
80 106570 
81 105770 
82 105570 
83 105570 
84 105370 
85 105170 
86 104970 
87 104670 
88 104470 
89 104270 
90 103870 
91 103670 
92 103470 
93 103270 
94 103070 
95 102870 
96 102670 
97 102470 
98 102270 
99 102070 
100 101970 
101 101770 
102 101570 
103 101070 
104 100870 
105 100270 
106 100270 
107 100070 
108 99870 
109 99270 
110 99270 
111 99070 
112 98770 
113 98670 
114 98270 
115 98070 
116 97670 
117 97470 
118 97270 
119 96870 
120 96770 
121 96370 
122 96340 
123 96240 
124 95940 
125 95210 
126 95210 
127 95210 
128 95000 
129 94400 
130 94200 
131 94100 
132 94100 
133 94010 
134 94010 
135 94010 
136 93810 
137 93810 
138 93510 
139 93510 
140 93110 
141 93110 
142 93110 
143 93110 
144 92400 
145 92010 
146 92010 
147 91970 
148 91950 
149 91950 
150 91950 
151 91950 
152 91950 
153 91950 
154 91950 
155 91950 
156 91950 
157 91950 
158 91950 
159 91950 
160 91950 
161 91950 
162 91950 
163 91950 
164 91950 
165 91950 
166 91950 
167 91950 
168 91950 
169 91950 
170 91950 
171 91950 
172 91950 
173 91950 
174 91950 
175 91950 
176 91950 
177 91950 
178 91950 
179 91950 
180 91950 
181 91950 
182 91950 
183 91950 
184 91950 
185 91950 
186 91950 
187 91950 
188 91950 
189 91950 
190 91950 
191 91950 
192 91950 
193 91950 
194 91950 
195 91950 
196 91950 
197 91950 
198 91950 
199 91950 
200 91950 
201 91950 
202 91950 
203 91950 
204 91950 
205 91950 
206 91950 
207 91950 
208 91950 
209 91950 
210 91950 
211 91950 
212 91950 
213 91950 
214 91950 
215 91950 
216 91950 
217 91950 
218 91950 
219 91950 
220 91950 
221 91950 
222 91950 
223 91950 
224 91950 
225 91950 
226 91950 
227 91950 
228 91950 
229 91950 
230 91950 
231 91950 
232 91950 
233 91950 
234 91950 
235 91950 
236 91950 
237 91950 
238 91950 
239 91950 
240 91950 
241 91950 
242 91950 
243 91950 
244 91950 
245 91950 
246 91950 
247 91950 
248 91950 
249 91950 
250 91950 
251 91950 
252 91950 
253 91950 
254 91950 
255 91950 
256 91950 
257 91950 
258 91950 
259 91950 
260 91950 
261 91950 
262 91950 
263 91950 
264 91950 
265 91950 
266 91950 
267 91950 
268 91950 
269 91950 
270 91950 
271 91950 
272 91950 
273 91950 
274 91950 
275 91950 
276 91950 
277 91950 
278 91950 
279 91950 
280 91950 
281 91950 
282 91950 
283 91950 
284 91950 
285 91950 
286 91950 
287 91950 
288 91950 
289 91950 
290 91950 
291 91950 
292 91950 
293 91950 
294 91950 
295 91950 
296 91950 
297 91950 
298 91950 
299 91950 
300 91950 
301 91950 
302 91950 
303 91950 
304 91950 
305 91950 
306 91950 
307 91950 
308 91950 
309 91950 
310 91950 
311 91950 
312 91950 
313 91950 
314 91950 
315 91950 
316 91950 
317 91950 
318 91950 
319 91950 
320 91950 
321 91950 
322 91950 
323 91950 
324 91950 
325 91950 
326 91950 
327 91950 
328 91950 
329 91950 
330 91950 
331 91950 
332 91950 
333 91950 
334 91950 
335 91950 
336 91950 
337 91950 
338 91950 
339 91950 
340 91950 
341 91950 
342 91950 
343 91950 
344 91950 
345 91950 
346 91950 
347 91950 
348 91950 
349 91950 
350 91950 
351 91950 
352 91950 
353 91950 
354 91950 
355 91950 
356 91950 
357 91950 
358 91950 
359 91950 
360 91950 
361 91950 
362 91950 
363 91950 
364 91950 
365 91950 
366 91950 
367 91950 
368 91950 
369 91950 
370 91950 
371 91950 
372 91950 
373 91950 
374 91950 
375 91950 
376 91950 
377 91950 
378 91950 
379 91950 
380 91950 
381 91950 
382 91950 
383 91950 
384 91950 
385 91950 
386 91950 
387 91950 
388 91950 
389 91950 
390 91950 
391 91950 
392 91950 
393 91950 
394 91950 
395 91950 
396 91950 
397 91950 
398 91950 
399 91950 
400 91950 
401 91950 
402 91950 
403 91950 
404 91950 
405 91950 
406 91950 
407 91950 
408 91950 
409 91950 
410 91950 
411 91950 
412 91950 
413 91950 
414 91950 
415 91950 
416 91950 
417 91950 
418 91950 
419 91950 
420 91950 
421 91950 
422 91950 
423 91950 
424 91950 
425 91950 
426 91950 
427 91950 
428 91950 
429 91950 
430 91950 
431 91950 
432 91950 
433 91950 
434 91950 
435 91950 
436 91950 
437 91950 
438 91950 
439 91950 
440 91950 
441 91950 
442 91950 
443 91950 
444 91950 
445 91950 
446 91950 
447 91950 
448 91950 
449 91950 
450 91950 
451 91950 
452 91950 
453 91950 
454 91950 
455 91950 
456 91950 
457 91950 
458 91950 
459 91950 
460 91950 
461 91950 
462 91950 
463 91950 
464 91950 
465 91950 
466 91950 
467 91950 
468 91950 
469 91950 
470 91950 
471 91950 
472 91950 
473 91950 
474 91950 
475 91950 
476 91950 
477 91950 
478 91950 
479 91950 
480 91950 
481 91950 
482 91950 
483 91950 
484 91950 
485 91950 
486 91950 
487 91950 
488 91950 
489 91950 
490 91950 
491 91950 
492 91950 
493 91950 
494 91950 
495 91950 
496 91950 
497 91950 
498 91950 
499 91950 
500 91950 
501 91950 
502 91950 
503 91950 
504 91950 
505 91950 
506 91950 
507 91950 
508 91950 
509 91950 
510 91950 
511 91950 
512 91950 
513 91950 
514 91950 
515 91950 
516 91950 
517 91950 
518 91950 
519 91950 
520 91950 
521 91950 
522 91950 
523 91950 
524 91950 
525 91950 
526 91950 
527 91950 
528 91950 
529 91950 
530 91950 
531 91950 
532 91950 
533 91950 
534 91950 
535 91950 
536 91950 
537 91950 
538 91950 
539 91950 
540 91950 
541 91950 
542 91950 
543 91950 
544 91950 
545 91950 
546 91950 
547 91950 
548 91950 
549 91950 
550 91950 
551 91950 
552 91950 
553 91950 
554 91950 
555 91950 
556 91950 
557 91950 
558 91950 
559 91950 
560 91950 
561 91950 
562 91950 
563 91950 
564 91950 
565 91950 
566 91950 
567 91950 
568 91950 
569 91950 
570 91950 
571 91950 
572 91950 
573 91950 
574 91950 
575 91950 
576 91950 
577 91950 
578 91950 
579 91950 
580 91950 
581 91950 
582 91950 
583 91950 
584 91950 
585 91950 
586 91950 
587 91950 
588 91950 
589 91950 
590 91950 
591 91950 
592 91950 
593 91950 
594 91950 
595 91950 
596 91950 
597 91950 
598 91950 
599 91950 
600 91950 
601 91950 
602 91950 
603 91950 
604 91950 
605 91950 
606 91950 
607 91950 
608 91950 
609 91950 
610 91950 
611 91950 
612 91950 
613 91950 
614 91950 
615 91950 
616 91950 
617 91950 
618 91950 
619 91950 
620 91950 
621 91950 
622 91950 
623 91950 
624 91950 
625 91950 
626 91950 
627 91950 
628 91950 
629 91950 
630 91950 
631 91950 
632 91950 
633 91950 
634 91950 
635 91950 
636 91950 
637 91950 
638 91950 
639 91950 
640 91950 
641 91950 
642 91950 
643 91950 
644 91950 
645 91950 
646 91950 
647 91950 
648 91950 
649 91950 
650 91950 
651 91950 
652 91950 
653 91950 
654 91950 
655 91950 
656 91950 
657 91950 
658 91950 
659 91950 
660 91950 
661 91950 
662 91950 
663 91950 
664 91950 
665 91950 
666 91950 
667 91950 
668 91950 
669 91950 
670 91950 
671 91950 
672 91950 
673 91950 
674 91950 
675 91950 
676 91950 
677 91950 
678 91950 
679 91950 
680 91950 
681 91950 
682 91950 
683 91950 
684 91950 
685 91950 
686 91950 
687 91950 
688 91950 
689 91950 
690 91950 
691 91950 
692 91950 
693 91950 
694 91950 
695 91950 
696 91950 
697 91950 
698 91950 
699 91950 
700 91950 
701 91950 
702 91950 
703 91950 
704 91950 
705 91950 
706 91950 
707 91950 
708 91950 
709 91950 
710 91950 
711 91950 
712 91950 
713 91950 
714 91950 
715 91950 
716 91950 
717 91950 
718 91950 
719 91950 
720 91950 
721 91950 
722 91950 
723 91950 
724 91950 
725 91950 
726 91950 
727 91950 
728 91950 
729 91950 
730 91950 
731 91950 
732 91950 
733 91950 
734 91950 
735 91950 
736 91950 
737 91950 
738 91950 
739 91950 
740 91950 
741 91950 
742 91950 
743 91950 
744 91950 
745 91950 
746 91950 
747 91950 
748 91950 
749 91950 
750 91950 
751 91950 
752 91950 
753 91950 
754 91950 
755 91950 
756 91950 
757 91950 
758 91950 
759 91950 
760 91950 
761 91950 
762 91950 
763 91950 
764 91950 
765 91950 
766 91950 
767 91950 
768 91950 
769 91950 
770 91950 
771 91950 
772 91950 
773 91950 
774 91950 
775 91950 
776 91950 
777 91950 
778 91950 
779 91950 
780 91950 
781 91950 
782 91950 
783 91950 
784 91950 
785 91950 
786 91950 
787 91950 
788 91950 
789 91950 
790 91950 
791 91950 
792 91950 
793 91950 
794 91950 
795 91950 
796 91950 
797 91950 
798 91950 
799 91950 
800 91950 
801 91950 
802 91950 
803 91950 
804 91950 
805 91950 
806 91950 
807 91950 
808 91950 
809 91950 
810 91950 
811 91950 
812 91950 
813 91950 
814 91950 
815 91950 
816 91950 
817 91950 
818 91950 
819 91950 
820 91950 
821 91950 
822 91950 
823 91950 
824 91950 
825 91950 
826 91950 
827 91950 
828 91950 
829 91950 
830 91950 
831 91950 
832 91950 
833 91950 
834 91950 
835 91950 
836 91950 
837 91950 
838 91950 
839 91950 
840 91950 
841 91950 
842 91950 
843 91950 
844 91950 
845 91950 
846 91950 
847 91950 
848 91950 
849 91950 
850 91950 
851 91950 
852 91950 
853 91950 
854 91950 
855 91950 
856 91950 
857 91950 
858 91950 
859 91950 
860 91950 
861 91950 
862 91950 
863 91950 
864 91950 
865 91950 
866 91950 
867 91950 
868 91950 
869 91950 
870 91950 
871 91950 
872 91950 
873 91950 
874 91950 
875 91950 
876 91950 
877 91950 
878 91950 
879 91950 
880 91950 
881 91950 
882 91950 
883 91950 
884 91950 
885 91950 
886 91950 
887 91950 
888 91950 
889 91950 
890 91950 
891 91950 
892 91950 
893 91950 
894 91950 
895 91950 
896 91950 
897 91950 
898 91950 
899 91950 
900 91950 
901 91950 
902 91950 
903 91950 
904 91950 
905 91950 
906 91950 
907 91950 
908 91950 
909 91950 
910 91950 
911 91950 
912 91950 
913 91950 
914 91950 
915 91950 
916 91950 
917 91950 
918 91950 
919 91950 
920 91950 
921 91950 
922 91950 
923 91950 
924 91950 
925 91950 
926 91950 
927 91950 
928 91950 
929 91950 
930 91950 
931 91950 
932 91950 
933 91950 
934 91950 
935 91950 
936 91950 
937 91950 
938 91950 
939 91950 
940 91950 
941 91950 
942 91950 
943 91950 
944 91950 
945 91950 
946 91950 
947 91950 
948 91950 
949 91950 
950 91950 
951 91950 
952 91950 
953 91950 
954 91950 
955 91950 
956 91950 
957 91950 
958 91950 
959 91950 
960 91950 
961 91950 
962 91950 
963 91950 
964 91950 
965 91950 
966 91950 
967 91950 
968 91950 
969 91950 
970 91950 
971 91950 
972 91950 
973 91950 
974 91950 
975 91950 
976 91950 
977 91950 
978 91950 
979 91950 
980 91950 
981 91950 
982 91950 
983 91950 
984 91950 
985 91950 
986 91950 
987 91950 
988 91950 
989 91950 
990 91950 
991 91950 
992 91950 
993 91950 
994 91950 
995 91950 
996 91950 
997 91950 
998 91950 
999 91950 
1000 91950 
1001 91950 
1002 91950 
1003 91950 
1004 91950 
1005 91950 
1006 91950 
1007 91950 
1008 91950 
1009 91950 
1010 91950 
1011 91950 
1012 91950 
1013 91950 
1014 91950 
1015 91950 
1016 91950 
1017 91950 
1018 91950 
1019 91950 
1020 91950 
1021 91950 
1022 91950 
1023 91950 
1024 91950 
1025 91950 
1026 91950 
1027 91950 
1028 91950 
1029 91950 
1030 91950 
1031 91950 
1032 91950 
1033 91950 
1034 91950 
1035 91950 
1036 91950 
1037 91950 
1038 91950 
1039 91950 
1040 91950 
1041 91950 
1042 91950 
1043 91950 
1044 91950 
1045 91950 
1046 91950 
1047 91950 
1048 91950 
1049 91950 
1050 91950 
1051 91950 
1052 91950 
1053 91950 
1054 91950 
1055 91950 
1056 91950 
1057 91950 
1058 91950 
1059 91950 
1060 91950 
1061 91950 
1062 91950 
1063 91950 
1064 91950 
1065 91950 
1066 91950 
1067 91950 
1068 91950 
1069 91950 
1070 91950 
1071 91950 
1072 91950 
1073 91950 
1074 91950 
1075 91950 
1076 91950 
1077 91950 
1078 91950 
1079 91950 
1080 91950 
1081 91950 
1082 91950 
1083 91950 
1084 91950 
1085 91950 
1086 91950 
1087 91950 
1088 91950 
1089 91950 
1090 91950 
1091 91950 
1092 91950 
1093 91950 
1094 91950 
1095 91950 
1096 91950 
1097 91950 
1098 91950 
1099 91950 
1100 91950 
1101 91950 
1102 91950 
1103 91950 
1104 91950 
1105 91950 
1106 91950 
1107 91950 
1108 91950 
1109 91950 
1110 91950 
1111 91950 
1112 91950 
1113 91950 
1114 91950 
1115 91950 
1116 91950 
1117 91950 
1118 91950 
1119 91950 
1120 91950 
1121 91950 
1122 91950 
1123 91950 
1124 91950 
1125 91950 
1126 91950 
1127 91950 
1128 91950 
1129 91950 
1130 91950 
1131 91950 
1132 91950 
1133 91950 
1134 91950 
1135 91950 
1136 91950 
1137 91950 
1138 91950 
1139 91950 
1140 91950 
1141 91950 
1142 91950 
1143 91950 
1144 91950 
1145 91950 
1146 91950 
1147 91950 
1148 91950 
1149 91950 
1150 91950 
1151 91950 
1152 91950 
1153 91950 
1154 91950 
1155 91950 
1156 91950 
1157 91950 
1158 91950 
1159 91950 
1160 91950 
1161 91950 
1162 91950 
1163 91950 
1164 91950 
1165 91950 
1166 91950 
1167 91950 
1168 91950 
1169 91950 
1170 91950 
1171 91950 
1172 91950 
1173 91950 
1174 91950 
1175 91950 
1176 91950 
1177 91950 
1178 91950 
1179 91950 
1180 91950 
1181 91950 
1182 91950 
1183 91950 
1184 91950 
1185 91950 
1186 91950 
1187 91950 
1188 91950 
1189 91950 
1190 91950 
1191 91950 
1192 91950 
1193 91950 
1194 91950 
1195 91950 
1196 91950 
1197 91950 
1198 91950 
1199 91950 
1200 91950 
1201 91950 
1202 91950 
1203 91950 
1204 91950 
1205 91950 
1206 91950 
1207 91950 
1208 91950 
1209 91950 
1210 91950 
1211 91950 
1212 91950 
1213 91950 
1214 91950 
1215 91950 
1216 91950 
1217 91950 
1218 91950 
1219 91950 
1220 91950 
1221 91950 
1222 91950 
1223 91950 
1224 91950 
1225 91950 
1226 91950 
1227 91950 
1228 91950 
1229 91950 
1230 91950 
1231 91950 
1232 91950 
1233 91950 
1234 91950 
1235 91950 
1236 91950 
1237 91950 
1238 91950 
1239 91950 
1240 91950 
1241 91950 
1242 91950 
1243 91950 
1244 91950 
1245 91950 
1246 91950 
1247 91950 
1248 91950 
1249 91950 
1250 91950 
1251 91950 
1252 91950 
1253 91950 
1254 91950 
1255 91950 
1256 91950 
1257 91950 
1258 91950 
1259 91950 
1260 91950 
1261 91950 
1262 91950 
1263 91950 
1264 91950 
1265 91950 
1266 91950 
1267 91950 
1268 91950 
1269 91950 
1270 91950 
1271 91950 
1272 91950 
1273 91950 
1274 91950 
1275 91950 
1276 91950 
1277 91950 
1278 91950 
1279 91950 
1280 91950 
1281 91950 
1282 91950 
1283 91950 
1284 91950 
1285 91950 
1286 91950 
1287 91950 
1288 91950 
1289 91950 
1290 91950 
1291 91950 
1292 91950 
1293 91950 
1294 91950 
1295 91950 
1296 91950 
1297 91950 
1298 91950 
1299 91950 
1300 91950 
1301 91950 
1302 91950 
1303 91950 
1304 91950 
1305 91950 
1306 91950 
1307 91950 
1308 91950 
1309 91950 
1310 91950 
1311 91950 
1312 91950 
1313 91950 
1314 91950 
1315 91950 
1316 91950 
1317 91950 
1318 91950 
1319 91950 
1320 91950 
1321 91950 
1322 91950 
1323 91950 
1324 91950 
1325 91950 
1326 91950 
1327 91950 
1328 91950 
1329 91950 
1330 91950 
1331 91950 
1332 91950 
1333 91950 
1334 91950 
1335 91950 
1336 91950 
1337 91950 
1338 91950 
1339 91950 
1340 91950 
1341 91950 
1342 91950 
1343 91950 
1344 91950 
1345 91950 
1346 91950 
1347 91950 
1348 91950 
1349 91950 
1350 91950 
1351 91950 
1352 91950 
1353 91950 
1354 91950 
1355 91950 
1356 91950 
1357 91950 
1358 91950 
1359 91950 
1360 91950 
1361 91950 
1362 91950 
1363 91950 
1364 91950 
1365 91950 
1366 91950 
1367 91950 
1368 91950 
1369 91950 
1370 91950 
1371 91950 
1372 91950 
1373 91950 
1374 91950 
1375 91950 
1376 91950 
1377 91950 
1378 91950 
1379 91950 
1380 91950 
1381 91950 
1382 91950 
1383 91950 
1384 91950 
1385 91950 
1386 91950 
1387 91950 
1388 91950 
1389 91950 
1390 91950 
1391 91950 
1392 91950 
1393 91950 
1394 91950 
1395 91950 
1396 91950 
1397 91950 
1398 91950 
1399 91950 
1400 91950 
1401 91950 
1402 91950 
1403 91950 
1404 91950 
1405 91950 
1406 91950 
1407 91950 
1408 91950 
1409 91950 
1410 91950 
1411 91950 
1412 91950 
1413 91950 
1414 91950 
1415 91950 
1416 91950 
1417 91950 
1418 91950 
1419 91950 
1420 91950 
1421 91950 
1422 91950 
1423 91950 
1424 91950 
1425 91950 
1426 91950 
1427 91950 
1428 91950 
1429 91950 
1430 91950 
1431 91950 
1432 91950 
1433 91950 
1434 91950 
1435 91950 
1436 91950 
1437 91950 
1438 91950 
1439 91950 
1440 91950 
1441 91950 
1442 91950 
1443 91950 
1444 91950 
1445 91950 
1446 91950 
1447 91950 
1448 91950 
1449 91950 
1450 91950 
1451 91950 
1452 91950 
1453 91950 
1454 91950 
1455 91950 
1456 91950 
1457 91950 
1458 91950 
1459 91950 
1460 91950 
1461 91950 
1462 91950 
1463 91950 
1464 91950 
1465 91950 
1466 91950 
1467 91950 
1468 91950 
1469 91950 
1470 91950 
1471 91950 
1472 91950 
1473 91950 
1474 91950 
1475 91950 
1476 91950 
1477 91950 
1478 91950 
1479 91950 
1480 91950 
1481 91950 
1482 91950 
1483 91950 
1484 91950 
1485 91950 
1486 91950 
1487 91950 
1488 91950 
1489 91950 
1490 91950 
1491 91950 
1492 91950 
1493 91950 
1494 91950 
1495 91950 
1496 91950 
1497 91950 
1498 91950 
1499 91950 
1500 91950 
1501 91950 
1502 91950 
1503 91950 
1504 91950 
1505 91950 
1506 91950 
1507 91950 
1508 91950 
1509 91950 
1510 91950 
1511 91950 
1512 91950 
1513 91950 
1514 91950 
1515 91950 
1516 91950 
1517 91950 
1518 91950 
1519 91950 
1520 91950 
1521 91950 
1522 91950 
1523 91950 
1524 91950 
1525 91950 
1526 91950 
1527 91950 
1528 91950 
1529 91950 
1530 91950 
1531 91950 
1532 91950 
1533 91950 
1534 91950 
1535 91950 
1536 91950 
1537 91950 
1538 91950 
1539 91950 
1540 91950 
1541 91950 
1542 91950 
1543 91950 
1544 91950 
1545 91950 
1546 91950 
1547 91950 
1548 91950 
1549 91950 
1550 91950 
1551 91950 
1552 91950 
1553 91950 
1554 91950 
1555 91950 
1556 91950 
1557 91950 
1558 91950 
1559 91950 
1560 91950 
1561 91950 
1562 91950 
1563 91950 
1564 91950 
1565 91950 
1566 91950 
1567 91950 
1568 91950 
1569 91950 
1570 91950 
1571 91950 
1572 91950 
1573 91950 
1574 91950 
1575 91950 
1576 91950 
1577 91950 
1578 91950 
1579 91950 
1580 91950 
1581 91950 
1582 91950 
1583 91950 
1584 91950 
1585 91950 
1586 91950 
1587 91950 
1588 91950 
1589 91950 
1590 91950 
1591 91950 
1592 91950 
1593 91950 
1594 91950 
1595 91950 
1596 91950 
1597 91950 
1598 91950 
1599 91950 
1600 91950 
1601 91950 
1602 91950 
1603 91950 
1604 91950 
1605 91950 
1606 91950 
1607 91950 
1608 91950 
1609 91950 
1610 91950 
1611 91950 
1612 91950 
1613 91950 
1614 91950 
1615 91950 
1616 91950 
1617 91950 
1618 91950 
1619 91950 
1620 91950 
1621 91950 
1622 91950 
1623 91950 
1624 91950 
1625 91950 
1626 91950 
1627 91950 
1628 91950 
1629 91950 
1630 91950 
1631 91950 
1632 91950 
1633 91950 
1634 91950 
1635 91950 
1636 91950 
1637 91950 
1638 91950 
1639 91950 
1640 91950 
1641 91950 
1642 91950 
1643 91950 
1644 91950 
1645 91950 
1646 91950 
1647 91950 
1648 91950 
1649 91950 
1650 91950 
1651 91950 
1652 91950 
1653 91950 
1654 91950 
1655 91950 
1656 91950 
1657 91950 
1658 91950 
1659 91950 
1660 91950 
1661 91950 
1662 91950 
1663 91950 
1664 91950 
1665 91950 
1666 91950 
1667 91950 
1668 91950 
1669 91950 
1670 91950 
1671 91950 
1672 91950 
1673 91950 
1674 91950 
1675 91950 
1676 91950 
1677 91950 
1678 91950 
1679 91950 
1680 91950 
1681 91950 
1682 91950 
1683 91950 
1684 91950 
1685 91950 
1686 91950 
1687 91950 
1688 91950 
1689 91950 
1690 91950 
1691 91950 
1692 91950 
1693 91950 
1694 91950 
1695 91950 
1696 91950 
1697 91950 
1698 91950 
1699 91950 
1700 91950 
1701 91950 
1702 91950 
1703 91950 
1704 91950 
1705 91950 
1706 91950 
1707 91950 
1708 91950 
1709 91950 
1710 91950 
1711 91950 
1712 91950 
1713 91950 
1714 91950 
1715 91950 
1716 91950 
1717 91950 
1718 91950 
1719 91950 
1720 91950 
1721 91950 
1722 91950 
1723 91950 
1724 91950 
1725 91950 
1726 91950 
1727 91950 
1728 91950 
1729 91950 
1730 91950 
1731 91950 
1732 91950 
1733 91950 
1734 91950 
1735 91950 
1736 91950 
1737 91950 
1738 91950 
1739 91950 
1740 91950 
1741 91950 
1742 91950 
1743 91950 
1744 91950 
1745 91950 
1746 91950 
1747 91950 
1748 91950 
1749 91950 
1750 91950 
1751 91950 
1752 91950 
1753 91950 
1754 91950 
1755 91950 
1756 91950 
1757 91950 
1758 91950 
1759 91950 
1760 91950 
1761 91950 
1762 91950 
1763 91950 
1764 91950 
1765 91950 
1766 91950 
1767 91950 
1768 91950 
1769 91950 
1770 91950 
1771 91950 
1772 91950 
1773 91950 
1774 91950 
1775 91950 
1776 91950 
1777 91950 
1778 91950 
1779 91950 
1780 91950 
1781 91950 
1782 91950 
1783 91950 
1784 91950 
1785 91950 
1786 91950 
1787 91950 
1788 91950 
1789 91950 
1790 91950 
1791 91950 
1792 91950 
1793 91950 
1794 91950 
1795 91950 
1796 91950 
1797 91950 
1798 91950 
1799 91950 
1800 91950 
1801 91950 
1802 91950 
1803 91950 
1804 91950 
1805 91950 
1806 91950 
1807 91950 
1808 91950 
1809 91950 
1810 91950 
1811 91950 
1812 91950 
1813 91950 
1814 91950 
1815 91950 
1816 91950 
1817 91950 
1818 91950 
1819 91950 
1820 91950 
1821 91950 
1822 91950 
1823 91950 
1824 91950 
1825 91950 
1826 91950 
1827 91950 
1828 91950 
1829 91950 
1830 91950 
1831 91950 
1832 91950 
1833 91950 
1834 91950 
1835 91950 
1836 91950 
1837 91950 
1838 91950 
1839 91950 
1840 91950 
1841 91950 
1842 91950 
1843 91950 
1844 91950 
1845 91950 
1846 91950 
1847 91950 
1848 91950 
1849 91950 
1850 91950 
1851 91950 
1852 91950 
1853 91950 
1854 91950 
1855 91950 
1856 91950 
1857 91950 
1858 91950 
1859 91950 
1860 91950 
1861 91950 
1862 91950 
1863 91950 
1864 91950 
1865 91950 
1866 91950 
1867 91950 
1868 91950 
1869 91950 
1870 91950 
1871 91950 
1872 91950 
1873 91950 
1874 91950 
1875 91950 
1876 91950 
1877 91950 
1878 91950 
1879 91950 
1880 91950 
1881 91950 
1882 91950 
1883 91950 
1884 91950 
1885 91950 
1886 91950 
1887 91950 
1888 91950 
1889 91950 
1890 91950 
1891 91950 
1892 91950 
1893 91950 
1894 91950 
1895 91950 
1896 91950 
1897 91950 
1898 91950 
1899 91950 
1900 91950 
1901 91950 
1902 91950 
1903 91950 
1904 91950 
1905 91950 
1906 91950 
1907 91950 
1908 91950 
1909 91950 
1910 91950 
1911 91950 
1912 91950 
1913 91950 
1914 91950 
1915 91950 
1916 91950 
1917 91950 
1918 91950 
1919 91950 
1920 91950 
1921 91950 
1922 91950 
1923 91950 
1924 91950 
1925 91950 
1926 91950 
1927 91950 
1928 91950 
1929 91950 
1930 91950 
1931 91950 
1932 91950 
1933 91950 
1934 91950 
1935 91950 
1936 91950 
1937 91950 
1938 91950 
1939 91950 
1940 91950 
1941 91950 
1942 91950 
1943 91950 
1944 91950 
1945 91950 
1946 91950 
1947 91950 
1948 91950 
1949 91950 
1950 91950 
1951 91950 
1952 91950 
1953 91950 
1954 91950 
1955 91950 
1956 91950 
1957 91950 
1958 91950 
1959 91950 
1960 91950 
1961 91950 
1962 91950 
1963 91950 
1964 91950 
1965 91950 
1966 91950 
1967 91950 
1968 91950 
1969 91950 
1970 91950 
1971 91950 
1972 91950 
1973 91950 
1974 91950 
1975 91950 
1976 91950 
1977 91950 
1978 91950 
1979 91950 
1980 91950 
1981 91950 
1982 91950 
1983 91950 
1984 91950 
1985 91950 
1986 91950 
1987 91950 
1988 91950 
1989 91950 
1990 91950 
1991 91950 
1992 91950 
1993 91950 
1994 91950 
1995 91950 
1996 91950 
1997 91950 
1998 91950 
1999 91950 
2000 91950 
2001 91950 
2002 91950 
2003 91950 
2004 91950 
2005 91950 
2006 91950 
2007 91950 
2008 91950 
2009 91950 
2010 91950 
2011 91950 
2012 91950 
2013 91950 
2014 91950 
2015 91950 
2016 91950 
2017 91950 
2018 91950 
2019 91950 
2020 91950 
2021 91950 
2022 91950 
2023 91950 
2024 91950 
2025 91950 
2026 91950 
2027 91950 
2028 91950 
2029 91950 
2030 91950 
2031 91950 
2032 91950 
2033 91950 
2034 91950 
2035 91950 
2036 91950 
2037 91950 
2038 91950 
2039 91950 
2040 91950 
2041 91950 
2042 91950 
2043 91950 
2044 91950 
2045 91950 
2046 91950 
2047 91950 
2048 91950 
2049 91950 
2050 91950 
2051 91950 
2052 91950 
2053 91950 
2054 91950 
2055 91950 
2056 91950 
2057 91950 
2058 91950 
2059 91950 
2060 91950 
2061 91950 
2062 91950 
2063 91950 
2064 91950 
2065 91950 
2066 91950 
2067 91950 
2068 91950 
2069 91950 
2070 91950 
2071 91950 
2072 91950 
2073 91950 
2074 91950 
2075 91950 
2076 91950 
2077 91950 
2078 91950 
2079 91950 
2080 91950 
2081 91950 
2082 91950 
2083 91950 
2084 91950 
2085 91950 
2086 91950 
2087 91950 
2088 91950 
2089 91950 
2090 91950 
2091 91950 
2092 91950 
2093 91950 
2094 91950 
2095 91950 
2096 91950 
2097 91950 
2098 91950 
2099 91950 
2100 91950 
2101 91950 
2102 91950 
2103 91950 
2104 91950 
2105 91950 
2106 91950 
2107 91950 
2108 91950 
2109 91950 
2110 91950 
2111 91950 
2112 91950 
2113 91950 
2114 91950 
2115 91950 
2116 91950 
2117 91950 
2118 91950 
2119 91950 
2120 91950 
2121 91950 
2122 91950 
2123 91950 
2124 91950 
2125 91950 
2126 91950 
2127 91950 
2128 91950 
2129 91950 
2130 91950 
2131 91950 
2132 91950 
2133 91950 
2134 91950 
2135 91950 
2136 91950 
2137 91950 
2138 91950 
2139 91950 
2140 91950 
2141 91950 
2142 91950 
2143 91950 
2144 91950 
2145 91950 
2146 91950 
2147 91950 
2148 91950 
2149 91950 
2150 91950 
2151 91950 
2152 91950 
2153 91950 
2154 91950 
2155 91950 
2156 91950 
2157 91950 
2158 91950 
2159 91950 
2160 91950 
2161 91950 
2162 91950 
2163 91950 
2164 91950 
2165 91950 
2166 91950 
2167 91950 
2168 91950 
2169 91950 
2170 91950 
2171 91950 
2172 91950 
2173 91950 
2174 91950 
2175 91950 
2176 91950 
2177 91950 
2178 91950 
2179 91950 
2180 91950 
2181 91950 
2182 91950 
2183 91950 
2184 91950 
2185 91950 
2186 91950 
2187 91950 
2188 91950 
2189 91950 
2190 91950 
2191 91950 
2192 91950 
2193 91950 
2194 91950 
2195 91950 
2196 91950 
2197 91950 
2198 91950 
2199 91950 
2200 91950 
2201 91950 
2202 91950 
2203 91950 
2204 91950 
2205 91950 
2206 91950 
2207 91950 
2208 91950 
2209 91950 
2210 91950 
2211 91950 
2212 91950 
2213 91950 
2214 91950 
2215 91950 
2216 91950 
2217 91950 
2218 91950 
2219 91950 
2220 91950 
2221 91950 
2222 91950 
2223 91950 
2224 91950 
2225 91950 
2226 91950 
2227 91950 
2228 91950 
2229 91950 
2230 91950 
2231 91950 
2232 91950 
2233 91950 
2234 91950 
2235 91950 
2236 91950 
2237 91950 
2238 91950 
2239 91950 
2240 91950 
2241 91950 
2242 91950 
2243 91950 
2244 91950 
2245 91950 
2246 91950 
2247 91950 
2248 91950 
2249 91950 
2250 91950 
2251 91950 
2252 91950 
2253 91950 
2254 91950 
2255 91950 
2256 91950 
2257 91950 
2258 91950 
2259 91950 
2260 91950 
2261 91950 
2262 91950 
2263 91950 
2264 91950 
2265 91950 
2266 91950 
2267 91950 
2268 91950 
2269 91950 
2270 91950 
2271 91950 
2272 91950 
2273 91950 
2274 91950 
2275 91950 
2276 91950 
2277 91950 
2278 91950 
2279 91950 
2280 91950 
2281 91950 
2282 91950 
2283 91950 
2284 91950 
2285 91950 
2286 91950 
2287 91950 
2288 91950 
2289 91950 
2290 91950 
2291 91950 
2292 91950 
2293 91950 
2294 91950 
2295 91950 
2296 91950 
2297 91950 
2298 91950 
2299 91950 
2300 91950 
2301 91950 
2302 91950 
2303 91950 
2304 91950 
2305 91950 
2306 91950 
2307 91950 
2308 91950 
2309 91950 
2310 91950 
2311 91950 
2312 91950 
2313 91950 
2314 91950 
2315 91950 
2316 91950 
2317 91950 
2318 91950 
2319 91950 
2320 91950 
2321 91950 
2322 91950 
2323 91950 
2324 91950 
2325 91950 
2326 91950 
2327 91950 
2328 91950 
2329 91950 
2330 91950 
2331 91950 
2332 91950 
2333 91950 
2334 91950 
2335 91950 
2336 91950 
2337 91950 
2338 91950 
2339 91950 
2340 91950 
2341 91950 
2342 91950 
2343 91950 
2344 91950 
2345 91950 
2346 91950 
2347 91950 
2348 91950 
2349 91950 
2350 91950 
2351 91950 
2352 91950 
2353 91950 
2354 91950 
2355 91950 
2356 91950 
2357 91950 
2358 91950 
2359 91950 
2360 91950 
2361 91950 
2362 91950 
2363 91950 
2364 91950 
2365 91950 
2366 91950 
2367 91950 
2368 91950 
2369 91950 
2370 91950 
2371 91950 
2372 91950 
2373 91950 
2374 91950 
2375 91950 
2376 91950 
2377 91950 
2378 91950 
2379 91950 
2380 91950 
2381 91950 
2382 91950 
2383 91950 
2384 91950 
2385 91950 
2386 91950 
2387 91950 
2388 91950 
2389 91950 
2390 91950 
2391 91950 
2392 91950 
2393 91950 
2394 91950 
2395 91950 
2396 91950 
2397 91950 
2398 91950 
2399 91950 
2400 91950 
2401 91950 
2402 91950 
2403 91950 
2404 91950 
2405 91950 
2406 91950 
2407 91950 
2408 91950 
2409 91950 
2410 91950 
2411 91950 
2412 91950 
2413 91950 
2414 91950 
2415 91950 
2416 91950 
2417 91950 
2418 91950 
2419 91950 
2420 91950 
2421 91950 
2422 91950 
2423 91950 
2424 91950 
2425 91950 
2426 91950 
2427 91950 
2428 91950 
2429 91950 
2430 91950 
2431 91950 
2432 91950 
2433 91950 
2434 91950 
2435 91950 
2436 91950 
2437 91950 
2438 91950 
2439 91950 
2440 91950 
2441 91950 
2442 91950 
2443 91950 
2444 91950 
2445 91950 
2446 91950 
2447 91950 
2448 91950 
2449 91950 
2450 91950 
2451 91950 
2452 91950 
2453 91950 
2454 91950 
2455 91950 
2456 91950 
2457 91950 
2458 91950 
2459 91950 
2460 91950 
2461 91950 
2462 91950 
2463 91950 
2464 91950 
2465 91950 
2466 91950 
2467 91950 
2468 91950 
2469 91950 
2470 91950 
2471 91950 
2472 91950 
2473 91950 
2474 91950 
2475 91950 
2476 91950 
2477 91950 
2478 91950 
2479 91950 
2480 91950 
2481 91950 
2482 91950 
2483 91950 
2484 91950 
2485 91950 
2486 91950 
2487 91950 
2488 91950 
2489 91950 
2490 91950 
2491 91950 
2492 91950 
2493 91950 
2494 91950 
2495 91950 
2496 91950 
2497 91950 
2498 91950 
2499 91950 
2500 91950 
2501 91950 
2502 91950 
2503 91950 
2504 91950 
2505 91950 
2506 91950 
2507 91950 
2508 91950 
2509 91950 
2510 91950 
2511 91950 
2512 91950 
2513 91950 
2514 91950 
2515 91950 
2516 91950 
2517 91950 
2518 91950 
2519 91950 
2520 91950 
2521 91950 
2522 91950 
2523 91950 
2524 91950 
2525 91950 
2526 91950 
2527 91950 
2528 91950 
2529 91950 
2530 91950 
2531 91950 
2532 91950 
2533 91950 
2534 91950 
2535 91950 
2536 91950 
2537 91950 
2538 91950 
2539 91950 
2540 91950 
2541 91950 
2542 91950 
2543 91950 
2544 91950 
2545 91950 
2546 91950 
2547 91950 
2548 91950 
2549 91950 
2550 91950 
2551 91950 
2552 91950 
2553 91950 
2554 91950 
2555 91950 
2556 91950 
2557 91950 
2558 91950 
2559 91950 
2560 91950 
2561 91950 
2562 91950 
2563 91950 
2564 91950 
2565 91950 
2566 91950 
2567 91950 
2568 91950 
2569 91950 
2570 91950 
2571 91950 
2572 91950 
2573 91950 
2574 91950 
2575 91950 
2576 91950 
2577 91950 
2578 91950 
2579 91950 
2580 91950 
2581 91950 
2582 91950 
2583 91950 
2584 91950 
2585 91950 
2586 91950 
2587 91950 
2588 91950 
2589 91950 
2590 91950 
2591 91950 
2592 91950 
2593 91950 
2594 91950 
2595 91950 
2596 91950 
2597 91950 
2598 91950 
2599 91950 
2600 91950 
2601 91950 
2602 91950 
2603 91950 
2604 91950 
2605 91950 
2606 91950 
2607 91950 
2608 91950 
2609 91950 
2610 91950 
2611 91950 
2612 91950 
2613 91950 
2614 91950 
2615 91950 
2616 91950 
2617 91950 
2618 91950 
2619 91950 
2620 91950 
2621 91950 
2622 91950 
2623 91950 
2624 91950 
2625 91950 
2626 91950 
2627 91950 
2628 91950 
2629 91950 
2630 91950 
2631 91950 
2632 91950 
2633 91950 
2634 91950 
2635 91950 
2636 91950 
2637 91950 
2638 91950 
2639 91950 
2640 91950 
2641 91950 
2642 91950 
2643 91950 
2644 91950 
2645 91950 
2646 91950 
2647 91950 
2648 91950 
2649 91950 
2650 91950 
2651 91950 
2652 91950 
2653 91950 
2654 91950 
2655 91950 
2656 91950 
2657 91950 
2658 91950 
2659 91950 
2660 91950 
2661 91950 
2662 91950 
2663 91950 
2664 91950 
2665 91950 
2666 91950 
2667 91950 
2668 91950 
2669 91950 
2670 91950 
2671 91950 
2672 91950 
2673 91950 
2674 91950 
2675 91950 
2676 91950 
2677 91950 
2678 91950 
2679 91950 
2680 91950 
2681 91950 
2682 91950 
2683 91950 
2684 91950 
2685 91950 
2686 91950 
2687 91950 
2688 91950 
2689 91950 
2690 91950 
2691 91950 
2692 91950 
2693 91950 
2694 91950 
2695 91950 
2696 91950 
2697 91950 
2698 91950 
2699 91950 
2700 91950 
2701 91950 
2702 91950 
2703 91950 
2704 91950 
2705 91950 
2706 91950 
2707 91950 
2708 91950 
2709 91950 
2710 91950 
2711 91950 
2712 91950 
2713 91950 
2714 91950 
2715 91950 
2716 91950 
2717 91950 
2718 91950 
2719 91950 
2720 91950 
2721 91950 
2722 91950 
2723 91950 
2724 91950 
2725 91950 
2726 91950 
2727 91950 
2728 91950 
2729 91950 
2730 91950 
2731 91950 
2732 91950 
2733 91950 
2734 91950 
2735 91950 
2736 91950 
2737 91950 
2738 91950 
2739 91950 
2740 91950 
2741 91950 
2742 91950 
2743 91950 
2744 91950 
2745 91950 
2746 91950 
2747 91950 
2748 91950 
2749 91950 
2750 91950 
2751 91950 
2752 91950 
2753 91950 
2754 91950 
2755 91950 
2756 91950 
2757 91950 
2758 91950 
2759 91950 
2760 91950 
2761 91950 
2762 91950 
2763 91950 
2764 91950 
2765 91950 
2766 91950 
2767 91950 
2768 91950 
2769 91950 
2770 91950 
2771 91950 
2772 91950 
2773 91950 
2774 91950 
2775 91950 
2776 91950 
2777 91950 
2778 91950 
2779 91950 
2780 91950 
2781 91950 
2782 91950 
2783 91950 
2784 91950 
2785 91950 
2786 91950 
2787 91950 
2788 91950 
2789 91950 
2790 91950 
2791 91950 
2792 91950 
2793 91950 
2794 91950 
2795 91950 
2796 91950 
2797 91950 
2798 91950 
2799 91950 
2800 91950 
2801 91950 
2802 91950 
2803 91950 
2804 91950 
2805 91950 
2806 91950 
2807 91950 
2808 91950 
2809 91950 
2810 91950 
2811 91950 
2812 91950 
2813 91950 
2814 91950 
2815 91950 
2816 91950 
2817 91950 
2818 91950 
2819 91950 
2820 91950 
2821 91950 
2822 91950 
2823 91950 
2824 91950 
2825 91950 
2826 91950 
2827 91950 
2828 91950 
2829 91950 
2830 91950 
2831 91950 
2832 91950 
2833 91950 
2834 91950 
2835 91950 
2836 91950 
2837 91950 
2838 91950 
2839 91950 
2840 91950 
2841 91950 
2842 91950 
2843 91950 
2844 91950 
2845 91950 
2846 91950 
2847 91950 
2848 91950 
2849 91950 
2850 91950 
2851 91950 
2852 91950 
2853 91950 
2854 91950 
2855 91950 
2856 91950 
2857 91950 
2858 91950 
2859 91950 
2860 91950 
2861 91950 
2862 91950 
2863 91950 
2864 91950 
2865 91950 
2866 91950 
2867 91950 
2868 91950 
2869 91950 
2870 91950 
2871 91950 
2872 91950 
2873 91950 
2874 91950 
2875 91950 
2876 91950 
2877 91950 
2878 91950 
2879 91950 
2880 91950 
2881 91950 
2882 91950 
2883 91950 
2884 91950 
2885 91950 
2886 91950 
2887 91950 
2888 91950 
2889 91950 
2890 91950 
2891 91950 
2892 91950 
2893 91950 
2894 91950 
2895 91950 
2896 91950 
2897 91950 
2898 91950 
2899 91950 
2900 91950 
2901 91950 
2902 91950 
2903 91950 
2904 91950 
2905 91950 
2906 91950 
2907 91950 
2908 91950 
2909 91950 
2910 91950 
2911 91950 
2912 91950 
2913 91950 
2914 91950 
2915 91950 
2916 91950 
2917 91950 
2918 91950 
2919 91950 
2920 91950 
2921 91950 
2922 91950 
2923 91950 
2924 91950 
2925 91950 
2926 91950 
2927 91950 
2928 91950 
2929 91950 
2930 91950 
2931 91950 
2932 91950 
2933 91950 
2934 91950 
2935 91950 
2936 91950 
2937 91950 
2938 91950 
2939 91950 
2940 91950 
2941 91950 
2942 91950 
2943 91950 
2944 91950 
2945 91950 
2946 91950 
2947 91950 
2948 91950 
2949 91950 
2950 91950 
2951 91950 
2952 91950 
2953 91950 
2954 91950 
2955 91950 
2956 91950 
2957 91950 
2958 91950 
2959 91950 
2960 91950 
2961 91950 
2962 91950 
2963 91950 
2964 91950 
2965 91950 
2966 91950 
2967 91950 
2968 91950 
2969 91950 
2970 91950 
2971 91950 
2972 91950 
2973 91950 
2974 91950 
2975 91950 
2976 91950 
2977 91950 
2978 91950 
2979 91950 
2980 91950 
2981 91950 
2982 91950 
2983 91950 
2984 91950 
2985 91950 
2986 91950 
2987 91950 
2988 91950 
2989 91950 
2990 91950 
2991 91950 
2992 91950 
2993 91950 
2994 91950 
2995 91950 
2996 91950 
2997 91950 
2998 91950 
2999 91950 
3000 91950 
3001 91950 
3002 91950 
3003 91950 
3004 91950 
3005 91950 
3006 91950 
3007 91950 
3008 91950 
3009 91950 
3010 91950 
3011 91950 
3012 91950 
3013 91950 
3014 91950 
3015 91950 
3016 91950 
3017 91950 
3018 91950 
3019 91950 
3020 91950 
3021 91950 
3022 91950 
3023 91950 
3024 91950 
3025 91950 
3026 91950 
3027 91950 
3028 91950 
3029 91950 
3030 91950 
3031 91950 
3032 91950 
3033 91950 
3034 91950 
3035 91950 
3036 91950 
3037 91950 
3038 91950 
3039 91950 
3040 91950 
3041 91950 
3042 91950 
3043 91950 
3044 91950 
3045 91950 
3046 91950 
3047 91950 
3048 91950 
3049 91950 
3050 91950 
3051 91950 
3052 91950 
3053 91950 
3054 91950 
3055 91950 
3056 91950 
3057 91950 
3058 91950 
3059 91950 
3060 91950 
3061 91950 
3062 91950 
3063 91950 
3064 91950 
3065 91950 
3066 91950 
3067 91950 
3068 91950 
3069 91950 
3070 91950 
3071 91950 
3072 91950 
3073 91950 
3074 91950 
3075 91950 
3076 91950 
3077 91950 
3078 91950 
3079 91950 
3080 91950 
3081 91950 
3082 91950 
3083 91950 
3084 91950 
3085 91950 
3086 91950 
3087 91950 
3088 91950 
3089 91950 
3090 91950 
3091 91950 
3092 91950 
3093 91950 
3094 91950 
3095 91950 
3096 91950 
3097 91950 
3098 91950 
3099 91950 
3100 91950 
3101 91950 
3102 91950 
3103 91950 
3104 91950 
3105 91950 
3106 91950 
3107 91950 
3108 91950 
3109 91950 
3110 91950 
3111 91950 
3112 91950 
3113 91950 
3114 91950 
3115 91950 
3116 91950 
3117 91950 
3118 91950 
3119 91950 
3120 91950 
3121 91950 
3122 91950 
3123 91950 
3124 91950 
3125 91950 
3126 91950 
3127 91950 
3128 91950 
3129 91950 
3130 91950 
3131 91950 
3132 91950 
3133 91950 
3134 91950 
3135 91950 
3136 91950 
3137 91950 
3138 91950 
3139 91950 
3140 91950 
3141 91950 
3142 91950 
3143 91950 
3144 91950 
3145 91950 
3146 91950 
3147 91950 
3148 91950 

